100 300 53 173 61 100 135 102 69 134 76 74 71 64 191 188 47 44 143 67 163 123 142 61 28 3 47 151 17 55 172 70 107 24 42 167 123 128 21 191 61 96 17 131 159 159 118 158 2 12 176 117 134 69 177 114 71 175 64 87 182 187 108 88 10 101 6 85 28 26 27 88 74 43 18 32 1 135 141 155 99 116 71 184 185 199 97 55 126 113 94 107 99 1 194 61 102 151 97 81 177 123 